#######################################
### Exact MIP solver for the HHCRSP ###
#######################################
-- Instance file: new-instances/HHCRSP_100_20_53_0.4_R_RC.txt
-- Max threads: 4
-- Time limit: 999999 seconds
-- Use initial solution: No
Trivial flow violations prevented generating 47569 variables.
Model exported.
Version identifier: 20.1.0.0 | 2020-11-10 | 9bedb6d68
CPXPARAM_Threads                                 4
CPXPARAM_TimeLimit                               999999
Parallel mode: deterministic, using up to 4 threads for concurrent optimization:
 * Starting dual Simplex on 1 thread...
 * Starting Barrier on 3 threads...
Tried aggregator 1 time.
LP Presolve eliminated 5880 rows and 1425 columns.
Reduced LP has 58192 rows, 55459 columns, and 707902 nonzeros.
Presolve time = 0.50 sec. (179.85 ticks)
Symmetry aggregator did 77061 additional substitutions.

Iteration log . . .
Iteration:     1   Dual objective     =             0.000000

Dual crossover.
  Dual:  Fixing 300 variables.
      299 DMoves:  Infeasibility  8.42104223e-14  Objective  2.00666667e+02
        0 DMoves:  Infeasibility  6.89448558e-14  Objective  2.00666667e+02
  Dual:  Pushed 12, exchanged 288.
  Primal:  Fixing 150 variables.
      149 PMoves:  Infeasibility  2.22044605e-16  Objective  2.00666667e+02
        0 PMoves:  Infeasibility  2.22044605e-16  Objective  2.00666667e+02
  Primal:  Pushed 95, exchanged 55.

Dual simplex solved model.


Solution status from MIP model:
-- Processing time: 0.811 sec.
-- Memory used: 126.531 MB
-- Best bound: inf
-- Obj value: 200.667
-- Gap: inf%
-- Total distance: 602
-- Total tardiness: 0
-- Largest tardiness: 0
